
Gurobi 9.0.2 (win64) logging started Sat Oct 10 14:25:21 2020

Changed value of parameter logfile to result\v6.2-20201010T1221\scenario_2030_eff070_cab1000.log
   Prev:   Default: 
Gurobi Optimizer version 9.0.2 build v9.0.2rc0 (win64)
Optimize a model with 1384150 rows, 884815 columns and 3912197 nonzeros
Model fingerprint: 0x3533c4e9
Coefficient statistics:
  Matrix range     [1e-07, 3e+05]
  Objective range  [1e+00, 1e+00]
  Bounds range     [0e+00, 0e+00]
  RHS range        [2e-05, 3e+08]
Warning: Model contains large matrix coefficient range
         Consider reformulating model or setting NumericFocus parameter
         to avoid numerical issues.

Concurrent LP optimizer: primal simplex, dual simplex, and barrier
Showing barrier log only...

Presolve removed 1129315 rows and 656241 columns
Presolve time: 3.51s
Presolved: 254835 rows, 342440 columns, 891938 nonzeros

Ordering time: 0.13s

Barrier statistics:
 Dense cols : 9
 AA' NZ     : 8.194e+05
 Factor NZ  : 4.461e+06 (roughly 300 MBytes of memory)
 Factor Ops : 1.125e+08 (less than 1 second per iteration)
 Threads    : 30

                  Objective                Residual
Iter       Primal          Dual         Primal    Dual     Compl     Time
   0  -1.88122116e+16 -1.58515980e+15  5.64e+06 1.56e+04  2.26e+12     4s
   1  -2.86984336e+15 -1.58807316e+15  8.53e+05 4.69e+06  7.41e+11     5s
   2  -1.21911575e+15 -1.28703819e+15  3.60e+05 9.66e+05  2.23e+11     5s
   3  -4.90355289e+14 -1.06232128e+15  1.42e+05 2.72e+05  7.90e+10     5s
   4  -1.12853634e+14 -6.69903851e+14  3.01e+04 6.72e+04  1.83e+10     6s
   5  -3.54557925e+13 -4.52561141e+14  9.40e+03 3.39e+04  7.60e+09     6s
   6  -1.71828594e+13 -2.53572750e+14  4.77e+03 1.04e+04  2.95e+09     6s
   7  -6.91221865e+12 -1.44645214e+14  2.04e+03 1.98e+03  9.27e+08     6s
   8  -1.38428043e+12 -7.41686562e+13  5.23e+02 2.98e+02  2.31e+08     7s
   9   4.75632475e+11 -1.02226817e+13  2.98e+00 3.88e+00  1.61e+07     7s
  10   1.79783216e+11 -1.53744424e+12  2.77e-01 4.38e-01  2.52e+06     7s
  11   8.38687716e+10 -5.01051388e+11  1.02e-01 4.74e-02  8.52e+05     8s
  12   4.81999832e+10 -3.11765322e+11  5.38e-02 7.45e-09  5.23e+05     8s
  13   2.42138295e+10 -1.98598169e+11  2.17e-02 7.45e-09  3.23e+05     8s
  14   1.46560844e+10 -7.23397393e+10  9.14e-03 1.12e-08  1.26e+05     8s
  15   1.39998087e+10 -3.69255264e+10  8.39e-03 1.12e-08  7.39e+04     9s
  16   1.00777886e+10 -1.14592770e+10  3.74e-03 1.12e-08  3.12e+04     9s
  17   7.28174257e+09 -3.17345198e+09  1.15e-03 9.31e-09  1.51e+04     9s
  18   6.53301856e+09  2.77275677e+09  5.56e-04 7.45e-09  5.44e+03     9s
  19   6.36538057e+09  3.68484955e+09  4.47e-04 5.59e-09  3.88e+03    10s
  20   6.20291975e+09  3.95235490e+09  3.44e-04 5.59e-09  3.25e+03    10s
  21   6.14353554e+09  4.19893666e+09  3.06e-04 3.73e-09  2.81e+03    10s
  22   6.05944442e+09  4.50572522e+09  2.54e-04 3.73e-09  2.25e+03    11s
  23   5.93904661e+09  4.72378757e+09  1.79e-04 2.79e-09  1.76e+03    11s
  24   5.85968803e+09  4.99073677e+09  1.30e-04 2.79e-09  1.26e+03    11s
  25   5.80735751e+09  5.13403031e+09  9.81e-05 2.79e-09  9.73e+02    12s
  26   5.78423919e+09  5.29742606e+09  8.43e-05 1.86e-09  7.04e+02    12s
  27   5.72944458e+09  5.35752750e+09  5.20e-05 1.86e-09  5.37e+02    12s
  28   5.70402951e+09  5.41042175e+09  3.70e-05 1.86e-09  4.24e+02    13s
  29   5.69986876e+09  5.44964109e+09  3.47e-05 2.79e-09  3.62e+02    13s
  30   5.68210653e+09  5.47378284e+09  2.48e-05 1.86e-09  3.01e+02    14s
  31   5.67237587e+09  5.51020585e+09  1.92e-05 1.86e-09  2.34e+02    14s
  32   5.66401845e+09  5.54511968e+09  1.46e-05 1.86e-09  1.72e+02    14s
  33   5.66044944e+09  5.57307405e+09  1.27e-05 1.86e-09  1.26e+02    15s
  34   5.65558001e+09  5.58359496e+09  1.01e-05 1.86e-09  1.04e+02    15s
  35   5.65255564e+09  5.59358231e+09  8.52e-06 1.86e-09  8.52e+01    16s
  36   5.65204222e+09  5.59662766e+09  8.22e-06 1.86e-09  8.01e+01    16s
  37   5.65078828e+09  5.59771597e+09  7.57e-06 2.79e-09  7.67e+01    16s
  38   5.65000829e+09  5.60194013e+09  7.17e-06 2.79e-09  6.95e+01    17s
  39   5.64797446e+09  5.60721420e+09  6.15e-06 2.79e-09  5.89e+01    17s
  40   5.64604617e+09  5.61129429e+09  5.18e-06 1.86e-09  5.02e+01    18s
  41   5.64514915e+09  5.61365722e+09  4.72e-06 2.79e-09  4.55e+01    18s
  42   5.64378868e+09  5.61882428e+09  4.00e-06 2.79e-09  3.61e+01    18s
  43   5.64327534e+09  5.62086845e+09  3.75e-06 2.79e-09  3.24e+01    19s
  44   5.64289707e+09  5.62233834e+09  3.56e-06 2.79e-09  2.97e+01    19s
  45   5.64183860e+09  5.62340902e+09  3.01e-06 1.86e-09  2.66e+01    19s
  46   5.64072244e+09  5.62537666e+09  2.44e-06 1.86e-09  2.22e+01    20s
  47   5.64028282e+09  5.62591919e+09  2.21e-06 1.86e-09  2.08e+01    20s
  48   5.63924296e+09  5.62921806e+09  1.70e-06 1.86e-09  1.45e+01    21s
  49   5.63895259e+09  5.63015446e+09  1.56e-06 1.86e-09  1.27e+01    21s
  50   5.63861901e+09  5.63058706e+09  1.39e-06 1.86e-09  1.16e+01    21s
  51   5.63823466e+09  5.63166979e+09  1.20e-06 1.86e-09  9.49e+00    22s
  52   5.63784378e+09  5.63199625e+09  1.00e-06 1.86e-09  8.45e+00    22s
  53   5.63758150e+09  5.63295432e+09  8.77e-07 2.79e-09  6.69e+00    22s
  54   5.63725335e+09  5.63325460e+09  7.20e-07 1.86e-09  5.78e+00    23s
  55   5.63705016e+09  5.63349331e+09  6.29e-07 1.86e-09  5.14e+00    23s
  56   5.63699213e+09  5.63369084e+09  5.98e-07 1.86e-09  4.77e+00    24s
  57   5.63697222e+09  5.63391112e+09  5.87e-07 1.86e-09  4.42e+00    24s
  58   5.63666426e+09  5.63457758e+09  9.87e-07 1.86e-09  3.02e+00    24s
  59   5.63653763e+09  5.63467350e+09  8.41e-07 1.86e-09  2.69e+00    25s
  60   5.63644003e+09  5.63476966e+09  7.29e-07 1.86e-09  2.41e+00    25s
  61   5.63633294e+09  5.63483294e+09  5.99e-07 1.86e-09  2.17e+00    26s
  62   5.63627833e+09  5.63497544e+09  5.42e-07 2.79e-09  1.88e+00    26s
  63   5.63622699e+09  5.63501777e+09  4.84e-07 2.79e-09  1.75e+00    26s
  64   5.63619700e+09  5.63507337e+09  5.95e-07 1.86e-09  1.62e+00    27s
  65   5.63617244e+09  5.63513778e+09  5.61e-07 2.79e-09  1.50e+00    27s
  66   5.63614264e+09  5.63516538e+09  5.19e-07 2.79e-09  1.41e+00    28s
  67   5.63612310e+09  5.63518546e+09  4.92e-07 2.79e-09  1.36e+00    29s
  68   5.63610534e+09  5.63523540e+09  4.69e-07 2.79e-09  1.26e+00    29s
  69   5.63607400e+09  5.63531834e+09  4.27e-07 2.79e-09  1.09e+00    30s
  70   5.63602662e+09  5.63539314e+09  3.63e-07 2.79e-09  9.16e-01    30s
  71   5.63600487e+09  5.63544743e+09  3.34e-07 2.79e-09  8.06e-01    31s
  72   5.63597637e+09  5.63549303e+09  2.96e-07 1.86e-09  6.99e-01    31s
  73   5.63593848e+09  5.63552846e+09  2.46e-07 1.86e-09  5.93e-01    32s
  74   5.63590458e+09  5.63555883e+09  2.00e-07 1.86e-09  5.00e-01    32s
  75   5.63586398e+09  5.63563888e+09  1.44e-07 1.86e-09  3.25e-01    33s
  76   5.63583926e+09  5.63566905e+09  1.11e-07 1.86e-09  2.46e-01    33s
  77   5.63581914e+09  5.63567632e+09  8.67e-08 1.86e-09  2.06e-01    34s
  78   5.63580955e+09  5.63568961e+09  7.38e-08 1.86e-09  1.73e-01    34s
  79   5.63578455e+09  5.63570066e+09  1.80e-07 1.86e-09  1.21e-01    35s
  80   5.63577822e+09  5.63573436e+09  1.46e-07 1.86e-09  6.34e-02    35s
  81   5.63577291e+09  5.63574134e+09  1.13e-07 1.86e-09  4.57e-02    36s
  82   5.63576860e+09  5.63574420e+09  8.49e-08 1.86e-09  3.53e-02    36s
  83   5.63576679e+09  5.63574495e+09  7.35e-08 2.79e-09  3.16e-02    37s
  84   5.63576540e+09  5.63574599e+09  6.48e-08 1.86e-09  2.81e-02    37s
  85   5.63575726e+09  5.63575149e+09  1.84e-08 3.20e-09  8.34e-03    38s
  86   5.63575563e+09  5.63575323e+09  4.21e-09 1.86e-09  3.47e-03    39s
  87   5.63575546e+09  5.63575498e+09  7.30e-05 1.03e-05  6.91e-04    39s
  88   5.63575546e+09  5.63575498e+09  8.28e-04 1.01e-05  6.91e-04    39s

Barrier solved model in 88 iterations and 39.40 seconds
Optimal objective 5.63575546e+09

Crossover log...

   73958 DPushes remaining with DInf 0.0000000e+00                40s
   11550 DPushes remaining with DInf 0.0000000e+00                40s
       0 DPushes remaining with DInf 0.0000000e+00                45s

  172359 PPushes remaining with PInf 7.4146489e-03                45s
   64164 PPushes remaining with PInf 1.8795283e-02                92s
   48718 PPushes remaining with PInf 2.5668618e-02                95s
   27069 PPushes remaining with PInf 2.6262393e-02               100s
   17147 PPushes remaining with PInf 3.6844499e-02               143s
   15616 PPushes remaining with PInf 3.4449601e-02               150s
   14896 PPushes remaining with PInf 3.2263023e-02               153s
   14088 PPushes remaining with PInf 2.9056518e-02               156s
   10394 PPushes remaining with PInf 2.1731427e-03               160s
    1341 PPushes remaining with PInf 1.1213889e+00               218s
     553 PPushes remaining with PInf 5.3178053e-01               224s
       1 PPushes remaining with PInf 0.0000000e+00               227s
       0 PPushes remaining with PInf 0.0000000e+00               227s

  Push phase complete: Pinf 0.0000000e+00, Dinf 9.9710926e+07    227s

Iteration    Objective       Primal Inf.    Dual Inf.      Time
  198616    5.6357552e+09   0.000000e+00   9.971093e+07    228s
  200174    5.6357551e+09   0.000000e+00   1.541666e+03    230s
Extra one simplex iteration after uncrush
  201624    5.6357551e+09   0.000000e+00   0.000000e+00    235s

Solved with barrier
Solved in 201624 iterations and 235.15 seconds
Optimal objective  5.635755094e+09
Warning: unscaled primal violation = 0.000878386 and residual = 0.000878386
